Route #1: 2 34 48 40 4 18 26 47 25
Route #2: 7 33 36 43 24 16 11
Route #3: 14 46 23 38 22 13 3
Route #4: 10 35 39 45 41
Route #5: 15 8 17 42 21
Route #6: 1 32 28 29 19
Route #7: 5 49 9 12 37
Route #8: 6 31 30 20 27 44
Cost 1341